;; translated from ./ctigar/dillig05.c.vmt
;; original benchmark available at: https://es-static.fbk.eu/people/griggio/ic3ia/index.html
;; author: Alberto Griggio <griggio@fbk.eu>
(set-logic HORN)
(declare-fun state (Bool Bool Bool Bool Int Int Int Int Int) Bool)
(assert (forall ((|.s.0| Bool) (|.s.2| Bool) (|.s.1| Bool) (|.s.1.next| Bool) (|.s.0.next| Bool) (|.s.2.next| Bool) (|.s.3.next| Bool) (|main.i.next| Int) (|main.i| Int) (|main.j.next| Int) (|main.j| Int) (|main.flag.next| Int) (|main.flag| Int) (|main.x.next| Int) (|main.x| Int) (|main.y.next| Int) (|main.y| Int) (|.inputVar.0| Int) (|.s.3| Bool)) (=> (let ((.def_17 (not .s.3)))
(let ((.def_14 (not .s.2)))
(let ((.def_10 (not .s.1)))
(let ((.def_12 (and .def_10 .s.0)))
(let ((.def_15 (and .def_12 .def_14)))
(let ((.def_18 (and .def_15 .def_17)))
.def_18)))))) (state |.s.1| |.s.0| |.s.2| |.s.3| |main.i| |main.j| |main.flag| |main.x| |main.y|))))
(assert (forall ((|.s.0| Bool) (|.s.2| Bool) (|.s.1| Bool) (|.s.1.next| Bool) (|.s.0.next| Bool) (|.s.2.next| Bool) (|.s.3.next| Bool) (|main.i.next| Int) (|main.i| Int) (|main.j.next| Int) (|main.j| Int) (|main.flag.next| Int) (|main.flag| Int) (|main.x.next| Int) (|main.x| Int) (|main.y.next| Int) (|main.y| Int) (|.inputVar.0| Int) (|.s.3| Bool)) (=> (and (state |.s.1| |.s.0| |.s.2| |.s.3| |main.i| |main.j| |main.flag| |main.x| |main.y|) (let ((.def_19 (not .s.0)))
(let ((.def_10 (not .s.1)))
(let ((.def_68 (and .def_10 .def_19)))
(let ((.def_14 (not .s.2)))
(let ((.def_123 (and .def_14 .def_68)))
(let ((.def_17 (not .s.3)))
(let ((.def_243 (and .def_17 .def_123)))
(let ((.def_244 (not .def_243)))
(let ((.def_58 (not .s.1.next)))
(let ((.def_25 (not .s.0.next)))
(let ((.def_59 (and .def_25 .def_58)))
(let ((.def_57 (not .s.2.next)))
(let ((.def_60 (and .def_57 .def_59)))
(let ((.def_56 (not .s.3.next)))
(let ((.def_61 (and .def_56 .def_60)))
(let ((.def_34 (= main.i main.i.next)))
(let ((.def_62 (and .def_34 .def_61)))
(let ((.def_38 (= main.j main.j.next)))
(let ((.def_63 (and .def_38 .def_62)))
(let ((.def_42 (= main.flag main.flag.next)))
(let ((.def_64 (and .def_42 .def_63)))
(let ((.def_46 (= main.x main.x.next)))
(let ((.def_65 (and .def_46 .def_64)))
(let ((.def_50 (= main.y main.y.next)))
(let ((.def_66 (and .def_50 .def_65)))
(let ((.def_245 (or .def_66 .def_244)))
(let ((.def_236 (= main.y.next 0)))
(let ((.def_27 (and .def_25 .s.1.next)))
(let ((.def_106 (and .def_27 .def_57)))
(let ((.def_107 (and .def_56 .def_106)))
(let ((.def_237 (and .def_107 .def_236)))
(let ((.def_235 (= main.x.next 0)))
(let ((.def_238 (and .def_235 .def_237)))
(let ((.def_234 (= main.j.next 0)))
(let ((.def_239 (and .def_234 .def_238)))
(let ((.def_233 (= main.i.next 0)))
(let ((.def_240 (and .def_233 .def_239)))
(let ((.def_241 (and .def_42 .def_240)))
(let ((.def_12 (and .def_10 .s.0)))
(let ((.def_15 (and .def_12 .def_14)))
(let ((.def_18 (and .def_15 .def_17)))
(let ((.def_232 (not .def_18)))
(let ((.def_242 (or .def_232 .def_241)))
(let ((.def_246 (and .def_242 .def_245)))
(let ((.def_161 (and .s.0.next .s.1.next)))
(let ((.def_215 (and .def_57 .def_161)))
(let ((.def_225 (and .def_56 .def_215)))
(let ((.def_226 (and .def_34 .def_225)))
(let ((.def_227 (and .def_38 .def_226)))
(let ((.def_228 (and .def_42 .def_227)))
(let ((.def_229 (and .def_46 .def_228)))
(let ((.def_230 (and .def_50 .def_229)))
(let ((.def_211 (= .inputVar.0 0)))
(let ((.def_20 (and .s.1 .def_19)))
(let ((.def_103 (and .def_14 .def_20)))
(let ((.def_209 (and .def_17 .def_103)))
(let ((.def_223 (and .def_209 .def_211)))
(let ((.def_224 (not .def_223)))
(let ((.def_231 (or .def_224 .def_230)))
(let ((.def_247 (and .def_231 .def_246)))
(let ((.def_216 (and .s.3.next .def_215)))
(let ((.def_217 (and .def_34 .def_216)))
(let ((.def_218 (and .def_38 .def_217)))
(let ((.def_219 (and .def_42 .def_218)))
(let ((.def_220 (and .def_46 .def_219)))
(let ((.def_221 (and .def_50 .def_220)))
(let ((.def_212 (not .def_211)))
(let ((.def_213 (and .def_209 .def_212)))
(let ((.def_214 (not .def_213)))
(let ((.def_222 (or .def_214 .def_221)))
(let ((.def_248 (and .def_222 .def_247)))
(let ((.def_92 (and .s.2.next .def_59)))
(let ((.def_202 (and .def_56 .def_92)))
(let ((.def_199 (* (- 1) main.x.next)))
(let ((.def_200 (+ main.x .def_199)))
(let ((.def_201 (= .def_200 (- 1))))
(let ((.def_203 (and .def_201 .def_202)))
(let ((.def_204 (and .def_34 .def_203)))
(let ((.def_205 (and .def_38 .def_204)))
(let ((.def_206 (and .def_42 .def_205)))
(let ((.def_207 (and .def_50 .def_206)))
(let ((.def_81 (and .s.1 .s.0)))
(let ((.def_82 (and .def_14 .def_81)))
(let ((.def_197 (and .def_17 .def_82)))
(let ((.def_198 (not .def_197)))
(let ((.def_208 (or .def_198 .def_207)))
(let ((.def_249 (and .def_208 .def_248)))
(let ((.def_72 (and .s.0.next .def_58)))
(let ((.def_73 (and .s.2.next .def_72)))
(let ((.def_190 (and .def_56 .def_73)))
(let ((.def_187 (* (- 1) main.y.next)))
(let ((.def_188 (+ main.y .def_187)))
(let ((.def_189 (= .def_188 (- 1))))
(let ((.def_191 (and .def_189 .def_190)))
(let ((.def_192 (and .def_34 .def_191)))
(let ((.def_193 (and .def_38 .def_192)))
(let ((.def_194 (and .def_42 .def_193)))
(let ((.def_195 (and .def_46 .def_194)))
(let ((.def_69 (and .s.2 .def_68)))
(let ((.def_185 (and .def_17 .def_69)))
(let ((.def_186 (not .def_185)))
(let ((.def_196 (or .def_186 .def_195)))
(let ((.def_250 (and .def_196 .def_249)))
(let ((.def_29 (and .def_27 .s.2.next)))
(let ((.def_178 (and .def_29 .def_56)))
(let ((.def_172 (* (- 1) main.i.next)))
(let ((.def_175 (+ .def_172 main.x)))
(let ((.def_176 (+ main.i .def_175)))
(let ((.def_177 (= .def_176 0)))
(let ((.def_179 (and .def_177 .def_178)))
(let ((.def_180 (and .def_38 .def_179)))
(let ((.def_181 (and .def_42 .def_180)))
(let ((.def_182 (and .def_46 .def_181)))
(let ((.def_183 (and .def_50 .def_182)))
(let ((.def_53 (and .def_12 .s.2)))
(let ((.def_170 (and .def_17 .def_53)))
(let ((.def_171 (not .def_170)))
(let ((.def_184 (or .def_171 .def_183)))
(let ((.def_251 (and .def_184 .def_250)))
(let ((.def_162 (and .s.2.next .def_161)))
(let ((.def_163 (and .def_56 .def_162)))
(let ((.def_126 (* (- 1) main.j.next)))
(let ((.def_158 (+ .def_126 main.y)))
(let ((.def_159 (+ main.j .def_158)))
(let ((.def_160 (= .def_159 0)))
(let ((.def_164 (and .def_160 .def_163)))
(let ((.def_165 (and .def_34 .def_164)))
(let ((.def_166 (and .def_42 .def_165)))
(let ((.def_167 (and .def_46 .def_166)))
(let ((.def_168 (and .def_50 .def_167)))
(let ((.def_21 (and .s.2 .def_20)))
(let ((.def_154 (and .def_17 .def_21)))
(let ((.def_155 (not .def_154)))
(let ((.def_169 (or .def_155 .def_168)))
(let ((.def_252 (and .def_169 .def_251)))
(let ((.def_140 (= main.flag 0)))
(let ((.def_137 (and .s.2 .def_81)))
(let ((.def_138 (and .def_17 .def_137)))
(let ((.def_151 (and .def_138 .def_140)))
(let ((.def_152 (not .def_151)))
(let ((.def_116 (and .s.3.next .def_106)))
(let ((.def_117 (and .def_34 .def_116)))
(let ((.def_118 (and .def_38 .def_117)))
(let ((.def_119 (and .def_42 .def_118)))
(let ((.def_120 (and .def_46 .def_119)))
(let ((.def_121 (and .def_50 .def_120)))
(let ((.def_153 (or .def_121 .def_152)))
(let ((.def_253 (and .def_153 .def_252)))
(let ((.def_144 (and .s.3.next .def_60)))
(let ((.def_145 (and .def_34 .def_144)))
(let ((.def_146 (and .def_38 .def_145)))
(let ((.def_147 (and .def_42 .def_146)))
(let ((.def_148 (and .def_46 .def_147)))
(let ((.def_149 (and .def_50 .def_148)))
(let ((.def_141 (not .def_140)))
(let ((.def_142 (and .def_138 .def_141)))
(let ((.def_143 (not .def_142)))
(let ((.def_150 (or .def_143 .def_149)))
(let ((.def_254 (and .def_150 .def_253)))
(let ((.def_129 (and .def_57 .def_72)))
(let ((.def_130 (and .s.3.next .def_129)))
(let ((.def_127 (+ main.j .def_126)))
(let ((.def_128 (= .def_127 (- 1))))
(let ((.def_131 (and .def_128 .def_130)))
(let ((.def_132 (and .def_34 .def_131)))
(let ((.def_133 (and .def_42 .def_132)))
(let ((.def_134 (and .def_46 .def_133)))
(let ((.def_135 (and .def_50 .def_134)))
(let ((.def_124 (and .s.3 .def_123)))
(let ((.def_125 (not .def_124)))
(let ((.def_136 (or .def_125 .def_135)))
(let ((.def_255 (and .def_136 .def_254)))
(let ((.def_114 (and .def_15 .s.3)))
(let ((.def_115 (not .def_114)))
(let ((.def_122 (or .def_115 .def_121)))
(let ((.def_256 (and .def_122 .def_255)))
(let ((.def_108 (and .def_34 .def_107)))
(let ((.def_109 (and .def_38 .def_108)))
(let ((.def_110 (and .def_42 .def_109)))
(let ((.def_111 (and .def_46 .def_110)))
(let ((.def_112 (and .def_50 .def_111)))
(let ((.def_104 (and .s.3 .def_103)))
(let ((.def_105 (not .def_104)))
(let ((.def_113 (or .def_105 .def_112)))
(let ((.def_257 (and .def_113 .def_256)))
(let ((.def_86 (* (- 1) main.j)))
(let ((.def_87 (+ main.i .def_86)))
(let ((.def_88 (<= 1 .def_87)))
(let ((.def_83 (and .s.3 .def_82)))
(let ((.def_100 (and .def_83 .def_88)))
(let ((.def_101 (not .def_100)))
(let ((.def_31 (and .def_29 .s.3.next)))
(let ((.def_35 (and .def_31 .def_34)))
(let ((.def_39 (and .def_35 .def_38)))
(let ((.def_43 (and .def_39 .def_42)))
(let ((.def_47 (and .def_43 .def_46)))
(let ((.def_51 (and .def_47 .def_50)))
(let ((.def_102 (or .def_51 .def_101)))
(let ((.def_258 (and .def_102 .def_257)))
(let ((.def_93 (and .s.3.next .def_92)))
(let ((.def_94 (and .def_34 .def_93)))
(let ((.def_95 (and .def_38 .def_94)))
(let ((.def_96 (and .def_42 .def_95)))
(let ((.def_97 (and .def_46 .def_96)))
(let ((.def_98 (and .def_50 .def_97)))
(let ((.def_89 (not .def_88)))
(let ((.def_90 (and .def_83 .def_89)))
(let ((.def_91 (not .def_90)))
(let ((.def_99 (or .def_91 .def_98)))
(let ((.def_259 (and .def_99 .def_258)))
(let ((.def_74 (and .s.3.next .def_73)))
(let ((.def_75 (and .def_34 .def_74)))
(let ((.def_76 (and .def_38 .def_75)))
(let ((.def_77 (and .def_42 .def_76)))
(let ((.def_78 (and .def_46 .def_77)))
(let ((.def_79 (and .def_50 .def_78)))
(let ((.def_70 (and .s.3 .def_69)))
(let ((.def_71 (not .def_70)))
(let ((.def_80 (or .def_71 .def_79)))
(let ((.def_260 (and .def_80 .def_259)))
(let ((.def_54 (and .s.3 .def_53)))
(let ((.def_55 (not .def_54)))
(let ((.def_67 (or .def_55 .def_66)))
(let ((.def_261 (and .def_67 .def_260)))
(let ((.def_22 (and .s.3 .def_21)))
(let ((.def_23 (not .def_22)))
(let ((.def_52 (or .def_23 .def_51)))
(let ((.def_262 (and .def_52 .def_261)))
.def_262))))))))))))))))))))))))))))))))))))))))))))))))))))))))))))))))))))))))))))))))))))))))))))))))))))))))))))))))))))))))))))))))))))))))))))))))))))))))))))))))))))))))))))))))))))))))))))))))))))))))))))))))))))))))))))))))))))) (state |.s.1.next| |.s.0.next| |.s.2.next| |.s.3.next| |main.i.next| |main.j.next| |main.flag.next| |main.x.next| |main.y.next|))))
(assert (forall ((|.s.0| Bool) (|.s.2| Bool) (|.s.1| Bool) (|.s.1.next| Bool) (|.s.0.next| Bool) (|.s.2.next| Bool) (|.s.3.next| Bool) (|main.i.next| Int) (|main.i| Int) (|main.j.next| Int) (|main.j| Int) (|main.flag.next| Int) (|main.flag| Int) (|main.x.next| Int) (|main.x| Int) (|main.y.next| Int) (|main.y| Int) (|.inputVar.0| Int) (|.s.3| Bool)) (=> (state |.s.1| |.s.0| |.s.2| |.s.3| |main.i| |main.j| |main.flag| |main.x| |main.y|) (let ((.def_19 (not .s.0)))
(let ((.def_20 (and .s.1 .def_19)))
(let ((.def_21 (and .s.2 .def_20)))
(let ((.def_22 (and .s.3 .def_21)))
(let ((.def_23 (not .def_22)))
.def_23))))))))
(check-sat)
